<number of tasks>
100

<cycle time>
1000

<order strength>
0.198


<task times>
1 479
2 661
3 529
4 579
5 688
6 342
7 578
8 521
9 306
10 524
11 632
12 445
13 384
14 341
15 471
16 444
17 591
18 581
19 341
20 351
21 389
22 531
23 690
24 428
25 539
26 490
27 445
28 449
29 497
30 663
31 383
32 585
33 402
34 571
35 775
36 525
37 288
38 398
39 398
40 388
41 587
42 697
43 550
44 587
45 432
46 335
47 602
48 448
49 495
50 465
51 444
52 357
53 251
54 577
55 479
56 370
57 590
58 622
59 718
60 420
61 670
62 548
63 448
64 543
65 389
66 553
67 813
68 381
69 226
70 472
71 617
72 588
73 463
74 593
75 706
76 238
77 492
78 626
79 647
80 654
81 697
82 495
83 483
84 208
85 666
86 584
87 436
88 559
89 252
90 713
91 675
92 582
93 435
94 354
95 376
96 694
97 563
98 513
99 415
100 368

<precedence relations>
1,39
2,39
3,28
4,6
4,7
4,8
4,9
4,11
4,12
5,10
5,13
6,28
7,20
8,22
9,21
9,23
9,25
9,26
10,16
10,18
10,19
10,24
12,14
12,17
13,15
14,39
15,28
16,28
17,28
18,28
19,28
20,32
21,30
22,27
23,31
24,29
24,34
25,33
25,36
26,35
26,37
26,38
27,39
28,40
28,41
28,42
28,43
28,44
28,45
28,46
28,47
28,48
28,49
28,50
28,51
29,52
30,53
31,53
33,54
39,55
39,56
39,57
39,58
39,59
40,92
48,62
50,61
52,60
55,65
59,67
60,64
60,66
61,63
62,72
63,69
63,72
64,68
64,70
65,71
67,73
68,74
69,77
72,75
72,76
74,79
75,78
75,81
76,80
76,82
76,83
76,85
76,86
77,84
77,87
78,88
79,92
80,89
81,90
82,91
83,94
84,93
88,98
89,95
90,96
91,97
92,99
92,100

<end>
